32      4       
9       9       10      10      
0       0       0       0       0       4       2       3       4       5       
3       0       0       0       2       1       6       
2       0       0       9       0       1       18      
9       0       0       4       0       1       23      
4       0       0       0       8       1       20      
10      4       0       0       0       1       7       
8       9       0       0       0       1       8       
9       9       0       0       0       1       9       
4       0       3       0       0       1       10      
7       9       0       0       0       2       11      23      
3       1       0       0       0       1       12      
2       0       0       0       4       1       13      
1       0       1       0       0       1       14      
6       9       0       0       0       1       15      
4       0       0       0       9       1       16      
7       0       0       4       0       1       17      
6       0       9       0       0       3       18      20      31      
8       0       0       0       8       1       19      
8       0       0       0       5       2       21      22      
7       3       0       0       0       2       22      29      
6       8       0       0       0       2       24      29      
1       0       0       8       0       1       24      
9       0       6       0       0       1       31      
8       0       0       7       0       1       25      
8       0       0       0       9       1       26      
8       0       0       10      0       1       27      
7       8       0       0       0       1       28      
2       0       3       0       0       1       30      
2       0       0       4       0       1       32      
1       5       0       0       0       1       32      
3       0       0       0       5       1       32      
0       0       0       0       0       0       
